! Written by touchstone-tools
! 2-port S-parameters, 11 frequency points
# GHZ S RI R 50
1 -0.04 -0.0692820323028 0.45 -0.779422863406 0.45 -0.779422863406 -0.04 -0.0692820323028
1.9 -0.0535304485087 0.0594515860382 -0.366062978768 -0.822190911878 -0.366062978768 -0.822190911878 -0.0535304485087 0.0594515860382
2.8 0.0730836366114 0.0325389314461 -0.88033284066 -0.187120521736 -0.88033284066 -0.187120521736 0.0730836366114 0.0325389314461
3.7 0.00836227706141 -0.0795617516295 -0.66883034293 0.602217545723 -0.66883034293 0.602217545723 0.00836227706141 -0.0795617516295
4.6 -0.0782518080587 0.0166329352654 0.0940756169409 0.895069705831 0.0940756169409 0.895069705831 -0.0782518080587 0.0166329352654
5.5 0.04 0.0692820323028 0.779422863406 0.45 0.779422863406 0.45 0.04 0.0692820323028
6.4 0.0535304485087 -0.0594515860382 0.822190911878 -0.366062978768 0.822190911878 -0.366062978768 0.0535304485087 -0.0594515860382
7.3 -0.0730836366114 -0.0325389314461 0.187120521736 -0.88033284066 0.187120521736 -0.88033284066 -0.0730836366114 -0.0325389314461
8.2 -0.00836227706141 0.0795617516295 -0.602217545723 -0.66883034293 -0.602217545723 -0.66883034293 -0.00836227706141 0.0795617516295
9.1 0.0782518080587 -0.0166329352654 -0.895069705831 0.0940756169409 -0.895069705831 0.0940756169409 0.0782518080587 -0.0166329352654
10 -0.04 -0.0692820323028 -0.45 0.779422863406 -0.45 0.779422863406 -0.04 -0.0692820323028
